logs/drand/feas/drand-07-110-2.sol
# Objective value = 286
x0,1_33 0
x0,1_55 0
x0,1_56 0
x0,1_69 0
x0,1_79 0
x0,1_89 0
x0,1_91 0
x0,2_33 0
x0,2_55 0
x0,2_56 0
x0,2_69 0
x0,2_79 0
x0,2_89 0
x0,2_91 0
x0,3_33 0
x0,3_55 0
x0,3_56 1
x0,3_69 0
x0,3_79 0
x0,3_89 0
x0,3_91 0
x0,4_33 0
x0,4_55 0
x0,4_56 0
x0,4_69 0
x0,4_79 0
x0,4_89 1
x0,4_91 0
x0,5_33 0
x0,5_55 0
x0,5_56 0
x0,5_69 0
x0,5_79 0
x0,5_89 0
x0,5_91 0
x1,2_33 0
x1,2_55 0
x1,2_56 0
x1,2_69 0
x1,2_79 0
x1,2_89 0
x1,2_91 0
x1,3_33 0
x1,3_55 0
x1,3_56 0
x1,3_69 0
x1,3_79 0
x1,3_89 0
x1,3_91 0
x1,4_33 0
x1,4_55 0
x1,4_56 0
x1,4_69 0
x1,4_79 1
x1,4_89 0
x1,4_91 0
x1,5_33 0
x1,5_55 0
x1,5_56 0
x1,5_69 0
x1,5_79 0
x1,5_89 0
x1,5_91 0
x2,3_33 0
x2,3_55 0
x2,3_56 0
x2,3_69 0
x2,3_79 0
x2,3_89 0
x2,3_91 0
x2,4_33 0
x2,4_55 0
x2,4_56 0
x2,4_69 1
x2,4_79 0
x2,4_89 0
x2,4_91 0
x2,5_33 0
x2,5_55 0
x2,5_56 0
x2,5_69 0
x2,5_79 0
x2,5_89 0
x2,5_91 1
x3,4_33 1
x3,4_55 0
x3,4_56 0
x3,4_69 0
x3,4_79 0
x3,4_89 0
x3,4_91 0
x3,5_33 0
x3,5_55 1
x3,5_56 0
x3,5_69 0
x3,5_79 0
x3,5_89 0
x3,5_91 0
x4,5_33 0
x4,5_55 0
x4,5_56 0
x4,5_69 0
x4,5_79 0
x4,5_89 0
x4,5_91 0
p0 0
p1 10
p2 20
p3 56
p4 89
p5 111
